41
W02 Dimethylaminomethyl acrylamide
C     -6.213617   -0.983627    0.675149
N     -6.600309    0.048189   -0.282629
C     -7.035442    1.265020    0.396884
C     -5.576416    0.292535   -1.301223
C     -4.253603    0.791339   -0.795965
C     -3.094916    0.126916   -0.938001
C     -1.822585    0.705204   -0.413932
O     -1.809515    1.793731    0.145057
N     -0.748827   -0.129324   -0.647874
C      0.598555    0.091547   -0.292097
C      1.058466    1.225269    0.371047
C      2.418507    1.360313    0.685348
C      3.355896    0.372650    0.348761
N      4.694452    0.574321    0.693692
C      5.862694   -0.162756    0.527453
N      6.970102    0.418412    1.022968
C      8.132313   -0.249054    0.891147
C      8.237512   -1.473988    0.285019
C      7.058949   -1.988940   -0.189412
N      5.874134   -1.359088   -0.080841
C      2.881213   -0.758859   -0.315748
C      1.522590   -0.900114   -0.633016
H     -7.060029   -1.237508    1.323324
H     -5.379505   -0.675074    1.315092
H     -5.930388   -1.906998    0.157616
H     -7.356246    2.021622   -0.327765
H     -7.903641    1.055132    1.031901
H     -6.253731    1.699633    1.029296
H     -5.436355   -0.630346   -1.879526
H     -5.960851    1.020669   -2.027231
H     -4.255274    1.764369   -0.308318
H     -3.064945   -0.837849   -1.427567
H     -0.930505   -1.000571   -1.126350
H      0.390336    2.029428    0.662127
H      2.736195    2.262085    1.204186
H      4.921022    1.433606    1.172256
H      9.003294    0.251882    1.303186
H      9.178864   -1.994857    0.188313
H      7.025726   -2.953275   -0.687425
H      3.555943   -1.559124   -0.603651
H      1.209935   -1.802520   -1.151253
