31
W03 Alpha-cyanoacrylamide
C      6.547399   -0.207877    0.372914
C      5.411884    0.108376   -0.274826
C      5.464552    0.706334   -1.561478
N      5.454652    1.195868   -2.613340
C      4.093651   -0.185075    0.392992
O      4.082143   -0.703115    1.506765
N      2.973785    0.170449   -0.339637
C      1.619939    0.013822    0.035093
C      0.652569    0.450047   -0.875243
C     -0.714771    0.333658   -0.586615
C     -1.156596   -0.219829    0.615397
N     -2.501505   -0.364313    0.963766
C     -3.705598   -0.057283    0.337721
N     -3.756249    0.508964   -0.877891
C     -4.973161    0.764806   -1.393524
C     -6.146469    0.478436   -0.745018
C     -6.000219   -0.098099    0.490000
N     -4.804773   -0.372554    1.046252
C     -0.176854   -0.653698    1.520316
C      1.192512   -0.540262    1.237985
H      7.525516   -0.019238   -0.060058
H      6.530726   -0.666357    1.358781
H      3.101780    0.593195   -1.251844
H      0.936648    0.889689   -1.828138
H     -1.422301    0.688672   -1.329722
H     -2.702542   -0.779372    1.861500
H     -4.970923    1.222853   -2.378066
H     -7.114057    0.691365   -1.175431
H     -6.863522   -0.366694    1.091576
H     -0.468352   -1.092705    2.472050
H      1.890135   -0.898238    1.987720
