29
W05 Vinyl sulfone
C      4.993764    0.945123    1.253475
C      4.354260   -0.214801    1.455344
S      3.884584   -1.221012    0.118043
O      3.773913   -2.588745    0.589744
O      4.684976   -0.910748   -1.052763
C      2.230447   -0.646679   -0.207184
C      1.154039   -1.217044    0.471378
C     -0.145511   -0.768801    0.207205
C     -0.393231    0.232216   -0.739961
N     -1.666199    0.730868   -1.031688
C     -2.945886    0.466002   -0.552855
N     -3.169494   -0.393028    0.453210
C     -4.445497   -0.575583    0.841664
C     -5.511509    0.067615    0.267920
C     -5.189978    0.928637   -0.749166
N     -3.929278    1.143334   -1.171918
C      0.711117    0.779596   -1.417993
C      2.015390    0.343760   -1.164186
H      5.291188    1.564940    2.093268
H      5.248819    1.298899    0.257790
H      4.113370   -0.575150    2.445760
H      1.306569   -2.009334    1.200828
H     -0.962124   -1.231082    0.754388
H     -1.740210    1.394736   -1.788475
H     -4.584477   -1.279915    1.656437
H     -6.529060   -0.092341    0.593390
H     -5.956675    1.491072   -1.273810
H      0.561428    1.558357   -2.163067
H      2.845264    0.779106   -1.715999
