30
W01 Acrylamide
C      6.679076    0.790595    0.285523
C      5.504475    0.643803   -0.341242
C      4.237949    0.505019    0.437397
O      4.247233    0.522512    1.660988
N      3.143230    0.364937   -0.390900
C      1.794530    0.211187   -0.006236
C      0.847021    0.085889   -1.026030
C     -0.514600   -0.070562   -0.729343
C     -0.968935   -0.106426    0.589571
N     -2.309253   -0.259493    0.952295
C     -3.497071   -0.408943    0.243491
N     -4.597490   -0.528344    1.008027
C     -5.777859   -0.675879    0.376715
C     -5.908001   -0.709496   -0.987414
C     -4.734851   -0.580628   -1.684820
N     -3.532541   -0.431113   -1.098013
C     -0.008095    0.020359    1.603581
C      1.355037    0.177084    1.313715
H      6.744485    0.812847    1.370582
H      7.602379    0.891881   -0.274113
H      5.461703    0.624274   -1.422311
H      3.309444    0.371158   -1.387515
H      1.143401    0.106806   -2.071185
H     -1.207961   -0.163375   -1.559506
H     -2.519332   -0.271000    1.939438
H     -6.642415   -0.769020    1.027238
H     -6.863666   -0.828644   -1.476591
H     -4.720743   -0.593514   -2.770494
H     -0.309231   -0.001130    2.648636
H      2.042079    0.269214    2.148782
