29
W04 Chloroacetamide
Cl    -5.790709    0.786104   -1.737547
C     -5.916698    0.055843   -0.119192
C     -4.574605   -0.396501    0.439205
O     -4.551862   -1.140852    1.418560
N     -3.467514    0.126530   -0.200587
C     -2.108051   -0.074622    0.104075
C     -1.168825    0.546258   -0.723377
C      0.205827    0.399374   -0.489218
C      0.681179   -0.369159    0.574147
N      2.035373   -0.554097    0.862925
C      3.221295   -0.110241    0.286340
N      3.238055    0.688310   -0.792115
C      4.440033    1.060178   -1.270797
C      5.630912    0.667699   -0.716739
C      5.519193   -0.145972    0.380743
N      4.339829   -0.543883    0.895056
C     -0.272369   -0.985646    1.397913
C     -1.648628   -0.842739    1.169353
H     -6.351462    0.797104    0.556412
H     -6.579603   -0.809791   -0.199045
H     -3.664377    0.702233   -1.014097
H     -1.482851    1.155866   -1.566715
H      0.892124    0.902997   -1.163014
H      2.261228   -1.138966    1.653817
H      4.410312    1.705537   -2.143568
H      6.586047    0.976755   -1.115489
H      6.398845   -0.516325    0.898785
H      0.045767   -1.594472    2.241377
H     -2.328466   -1.347520    1.847844
