33
W06 Methacrylamide
C     -5.148934    1.120252    1.383268
C     -5.001825    0.354680    0.288950
C     -6.098362   -0.486652   -0.286330
C     -3.715598    0.348704   -0.481083
O     -3.746965    0.394253   -1.704189
N     -2.605414    0.222836    0.326792
C     -1.254214    0.190202   -0.071361
C     -0.294737    0.006027    0.927627
C      1.071571   -0.034340    0.614849
C      1.518084    0.108081   -0.699678
N      2.862767    0.079645   -1.077381
C      4.062252   -0.077528   -0.390240
N      4.108841   -0.240413    0.941160
C      5.321897   -0.383380    1.507071
C      6.495264   -0.370527    0.798351
C      6.353409   -0.198970   -0.554192
N      5.162016   -0.051965   -1.164585
C      0.544736    0.295666   -1.692307
C     -0.823072    0.337120   -1.386254
H     -6.090631    1.146915    1.923556
H     -4.359026    1.770279    1.747335
H     -6.380343   -0.128744   -1.281828
H     -6.996292   -0.467932    0.340450
H     -5.774487   -1.529315   -0.369725
H     -2.777011    0.102946    1.315923
H     -0.586129   -0.111086    1.967842
H      1.774771   -0.180852    1.428808
H      3.065648    0.182275   -2.060730
H      5.316458   -0.512761    2.585164
H      7.459670   -0.486916    1.270741
H      7.217028   -0.173074   -1.212067
H      0.839717    0.414644   -2.732519
H     -1.521086    0.488809   -2.203418
