34
W07 Beta-methyl cyanoacrylamide
C      7.208427    0.284048   -0.002220
C      5.816729   -0.266300    0.047815
C      4.661863    0.425376   -0.049391
C      4.641313    1.835590   -0.220000
N      4.564888    2.985015   -0.359766
C      3.364957   -0.346526    0.028535
O      3.391672   -1.565943    0.176167
N      2.216620    0.420975   -0.077759
C      0.877525   -0.030171   -0.039078
C     -0.124002    0.936951   -0.167761
C     -1.479908    0.580190   -0.140680
C     -1.876114   -0.748367    0.015154
N     -3.207314   -1.169911    0.050358
C     -4.434603   -0.520951   -0.042552
N     -5.506559   -1.329227    0.042440
C     -6.722560   -0.756351   -0.041146
C     -6.915456    0.590723   -0.206179
C     -5.767139    1.335530   -0.282594
N     -4.531224    0.807744   -0.204227
C     -0.862528   -1.709219    0.143222
C      0.495646   -1.359240    0.116987
H      7.242438    1.368822   -0.132863
H      7.754827   -0.172514   -0.833455
H      7.734022    0.040080    0.926319
H      5.773868   -1.348495    0.178046
H      2.308587    1.423184   -0.197756
H      0.123984    1.988211   -0.291846
H     -2.215201    1.372198   -0.245053
H     -3.374256   -2.158313    0.167803
H     -7.562770   -1.440516    0.031584
H     -7.898932    1.032723   -0.271204
H     -5.802107    2.412961   -0.413181
H     -1.117886   -2.759424    0.267088
H      1.221193   -2.158853    0.222172
