40
W08 Beta-isopropyl cyanoacrylamide
C     -6.670478    1.483991    0.267332
C     -5.973148    0.124592    0.323622
C     -6.783185   -0.925693   -0.436735
C     -4.582893    0.231160   -0.263660
C     -3.412175   -0.007481    0.365681
C     -3.356472   -0.407972    1.727430
N     -3.251739   -0.736605    2.835384
C     -2.135442    0.163742   -0.424720
O     -2.191451    0.510367   -1.602086
N     -0.969867   -0.095938    0.277442
C      0.356684   -0.017184   -0.204481
C      1.380448   -0.328076    0.695624
C      2.726090   -0.276705    0.304349
C      3.089633    0.085346   -0.992986
N      4.409030    0.155989   -1.446010
C      5.650576   -0.072999   -0.861078
N      6.701671    0.116769   -1.678886
C      7.930099   -0.090242   -1.167083
C      8.155400   -0.479152    0.127924
C      7.026498   -0.648128    0.887026
N      5.779272   -0.453171    0.419473
C      2.053977    0.394908   -1.886618
C      0.705905    0.345544   -1.501819
H     -6.777210    1.840838   -0.763406
H     -6.105717    2.237251    0.827929
H     -7.672089    1.423237    0.706611
H     -5.931726   -0.184286    1.374136
H     -6.299576   -1.907461   -0.383083
H     -6.894279   -0.662065   -1.494710
H     -7.786581   -1.024602   -0.008604
H     -4.557766    0.536257   -1.311884
H     -1.037355   -0.376656    1.248999
H      1.158230   -0.616967    1.719931
H      3.479694   -0.528191    1.044392
H      4.551826    0.430015   -2.406802
H      8.752732    0.072846   -1.857012
H      9.148410   -0.640530    0.521251
H      7.087525   -0.954812    1.926907
H      2.283584    0.683231   -2.910157
H     -0.038136    0.598831   -2.249554
